
  22   10
  10   10   10   10   10   10   10   10   10   10

   0   0   0   0   0   0   0   0   0   0   0   4 2 3 8 9 
  10   0   0   0   0   0   0  10   0   0   0   2 10 4 
   6   0   0   0   0   0   0   0  10   0   0   5 16 13 12 10 6 
   7   0   0   0   0   0   0   0   0  10   0   1 5 
   3   0   0   0   0  10   0   0   0   0   0   3 16 12 6 
  10   0   0   0   0  10   0   0   0   0   0   1 7 
   9  10   0   0   0   0   0   0   0   0   0   2 14 11 
   1   0   0   0   0   0   0   0   0   0  10   2 21 13 
   5   0   0   0   0  10   0   0   0   0   0   2 14 12 
   1   0   0   0   0  10   0   0   0   0   0   1 11 
   5   0  10   0   0   0   0   0   0   0   0   2 21 15 
   5   0   0   0   0   0   0   0   0   0  10   2 21 15 
   2   0   0   0   0   0  10   0   0   0   0   1 14 
   8  10   0   0   0   0   0   0   0   0   0   1 15 
   7   0   0   0   0   0   0   0   0  10   0   2 20 17 
   4   0   0  10   0   0   0   0   0   0   0   2 21 18 
   8   0   0   0  10   0   0   0   0   0   0   1 18 
   2   0   0   0   0  10   0   0   0   0   0   1 19 
   9   0   0  10   0   0   0   0   0   0   0   1 22
   8   0   0   0   0   0   0   0  10   0   0   1 22
   8   0   0   0   0   0   0  10   0   0   0   1 22
   0   0   0   0   0   0   0   0   0   0   0   0 
